10227
0 0 0 0 1 0 1 0 0 1 0 1 1 1 0 0 0 1 1 1 0 1 1 1 1 1 1 1 0 1 
4 19 18 24 25 22 26 21 27 29 24 23 13 9 18 11 21 11 12 21 25 26 22 22 17 13 29 6 29 4 5 24 2 13 19 22 25 12 21 11 4 12 28 23 5 25 26 17 17 11 21 9 9 18 6 6 19 22 2 5 5 27 1 29 27 28 1 27 28 29 
